unsat
(:added-eqs                       10383
 :arith-eq-adapter                215
 :arith-bound-propagations-lp     865
 :arith-branch                    18
 :arith-conflicts                 1194
 :arith-cube-calls                6
 :arith-diseq                     3460
 :arith-fixed-eqs                 1685
 :arith-gcd-calls                 283
 :arith-gomory-cuts               9
 :arith-grobner-calls             186
 :arith-grobner-conflicts         92
 :arith-hnf-calls                 2
 :arith-horner-calls              43
 :arith-horner-conflicts          2
 :arith-horner-cross-nested-forms 8183
 :arith-lower                     6273
 :arith-make-feasible             5438
 :arith-max-columns               237
 :arith-max-rows                  103
 :arith-nla-add-bounds            46
 :arith-nla-lemmas                374
 :arith-nla-propagate-bounds      461
 :arith-nla-propagate-eq          4335
 :arith-nra-calls                 83
 :arith-offset-eqs                839
 :arith-patches                   283
 :arith-patches-success           258
 :arith-upper                     11401
 :binary-propagations             33167
 :conflicts                       1154
 :decisions                       16784
 :del-clause                      2025
 :elim-unconstrained              3
 :final-checks                    485
 :max-memory                      42.13
 :memory                          20.08
 :minimized-lits                  2135
 :mk-bool-var                     2123
 :mk-clause                       2765
 :mk-clause-binary                1037
 :num-allocs                      659494682
 :num-checks                      1
 :propagations                    52383
 :restarts                        10
 :rlimit-count                    13598704
 :sat-backjumps                   46678
 :sat-backtracks                  58
 :sat-conflicts                   46737
 :sat-decisions                   99449
 :sat-del-clause                  85793
 :sat-elim-bool-vars-res          8838
 :sat-elim-clauses                12016
 :sat-elim-literals               23996
 :sat-gc-clause                   24049
 :sat-minimized-lits              484583
 :sat-mk-clause-2ary              29479
 :sat-mk-clause-3ary              14669
 :sat-mk-clause-nary              121087
 :sat-mk-var                      18599
 :sat-probing-assigned            85
 :sat-propagations-2ary           3781872
 :sat-propagations-nary           7229958
 :sat-restarts                    4640
 :sat-scc-elim-binary             155
 :sat-scc-elim-vars               91
 :sat-subs-resolution             999
 :sat-subs-resolution-dyn         14487
 :sat-subsumed                    10998
 :sat-units                       2087
 :time                            3.27
 :total-time                      3.29)
